# Node Net
1593   1
401   1
1120   1
1582   1
 33   2
1595   2
1481   2
1567   2
1580   3
1200   3
440   3
680   3
1240   4
1040   4
1480   4
800   4
 23   5
1201   5
 16   5
1561   5
400   6
720   6
1570   6
  4   6
1572   7
1001   7
121   8
201   8
1560   9
  9   9
281  10
761  10
